
  20    0


   0   9 2 3 4 5 15 16 17 18 19 
   7   4 14 9 7 6 
   4   3 13 12 6 
   1   2 11 9 
   1   2 10 9 
   1   1 8 
   2   1 8 
  10   1 20
   1   1 20
   1   1 20
   5   1 20
   6   1 20
   9   1 20
   1   1 20
   3   1 20
   3   1 20
  10   1 20
   7   1 20
   4   1 20
   0   0 
